 $CONTRL SCFTYP=RHF RUNTYP=ENERGY MAXIT=200
         ICHARG=0 MULT=1 nprint=4 units=bohr $END 
 $SYSTEM TIMLIM=3000 MWORDS=100 $END 
 $DATA  
                                                                                
C1
H           1.0      0.0000000000      0.0000000000      0.75
  S 3
  1 3.4252509099999999 0.15432897000000001
  2 0.62391373000000006 0.53532813999999995
  3 0.16885539999999999 0.44463454000000002
        
Li          3.0      0.0000000000      0.0000000000     -0.75
  S 3
  1 16.119575000000001   0.15432897000000001
  2 2.9362007000000001   0.53532813999999995
  3 0.79465050000000004  0.44463454000000002
  S 3
  1 0.63628969999999996 -0.099967230000000004
  2 0.14786009999999999  0.39951282999999999
  3 0.048088699999999998 0.70011546999999996
  P 3
  1 0.63628969999999996  0.15591627
  2 0.14786009999999999  0.60768372000000004
  3 0.048088699999999998 0.39195739000000002
        
 $END      
